synthesis/NR_UFLIA/sl/knapsack3.sl
;; From [Bjørner, Hozzová 2025]
(set-logic UFLIA)
(set-feature :recursion true)


(declare-var u1 Int)
(declare-var u2 Int)
(declare-var u3 Int)
(declare-var item1 Int)
(declare-var item2 Int)
(declare-var item3 Int)
(declare-var capacity Int)

(define-fun subspec ((i1 Int) (i2 Int) (i3 Int) (c Int) (x1 Int) (x2 Int) (x3 Int)) Bool (and (or (= x1 i1) (= x1 0)) (or (= x2 i2) (= x2 0)) (or (= x3 i3) (= x3 0)) (<= (+ x1 x2 x3) c)))


(synth-fun fy1 ((item1 Int) (item2 Int) (item3 Int) (capacity Int)) Int)
(synth-fun fy2 ((item1 Int) (item2 Int) (item3 Int) (capacity Int)) Int)
(synth-fun fy3 ((item1 Int) (item2 Int) (item3 Int) (capacity Int)) Int)

(constraint (=> (and (>= capacity 0) (>= item1 0) (>= item2 0) (>= item3 0)) (and (subspec item1 item2 item3 capacity (fy1 item1 item2 item3 capacity) (fy2 item1 item2 item3 capacity) (fy3 item1 item2 item3 capacity)) (=> (subspec item1 item2 item3 capacity u1 u2 u3) (<= (+ u1 u2 u3) (+ (fy1 item1 item2 item3 capacity) (fy2 item1 item2 item3 capacity) (fy3 item1 item2 item3 capacity)))))))

(check-synth)
